30 61
29
11 5 19 0
11 4 8 0
10 19 0 17
10 7 0 10
9 16 21 17
9 9 12 5
8 5 4 4
7 25 14 14
7 13 0 41
7 12 21 5
7 7 0 54
7 5 0 36
6 24 7 37
6 18 24 33
6 11 13 39
6 10 24 51
6 5 13 50
5 21 19 40
4 23 10 14
4 10 0 0
4 2 4 0
4 2 4 2
4 1 8 9
3 6 16 55
3 5 13 55
2 12 28 5
2 7 22 33
2 1 19 39
1 4 21 33

301
True
NOT_OPTIMAL